% Logging successfully configured
%%%mzn-stat: initTime=0.042031135
%%%mzn-stat: objective=807
%%%mzn-stat: nodes=544
%%%mzn-stat: restarts=0
%%%mzn-stat: peakDepth=74
%%%mzn-stat: solveTime=0.008763332
%%%mzn-stat: variables=196
%%%mzn-stat: propagators=119
%%%mzn-stat: failures=258
%%%mzn-stat: propagations=5892
%%%mzn-stat: nogoods=258
%%%mzn-stat: numAtomicConstraintsPropagated=0
%%%mzn-stat: allDifferentNumber1TotalHallSetSize=1504
%%%mzn-stat: allDifferentNumber1NumberOfConflicts=251
%%%mzn-stat: allDifferentNumber1MaxHallSetSize=16
%%%mzn-stat: allDifferentNumber1PropagationsTotal=1176
%%%mzn-stat: allDifferentNumber1PropagationsThatFoundConflict=251
%%%mzn-stat: circuitNumber2PropagationsThatFoundConflict=3
%%%mzn-stat: circuitNumber2TotalFixedEdgesAtConflict=33
%%%mzn-stat: circuitNumber2NumberOfConflicts=3
%%%mzn-stat: circuitNumber2PropagationsThatPruned=102
%%%mzn-stat: circuitNumber2PropagationsTotal=591
%%%mzn-stat: AverageConflictSize=4.9147286821705425
%%%mzn-stat: NumUnitNogoodsLearned=1
%%%mzn-stat: AverageLearnedNogoodLength=4.329457364341085
%%%mzn-stat: AverageBacktrackAmount=0
%%%mzn-stat: AverageLbd=3.75968992248062
%%%mzn-stat: 2AutonomousSearchNumBackupCalled=61
%%%mzn-stat: 2AutonomousSearchNumPredicatesRemoved=0
%%%mzn-stat: 2AutonomousSearchNumCalls=62
%%%mzn-stat: 2AutonomousSearchNumPredicatesAdded=393
%%%mzn-stat: 2AutonomousSearchAverageSizeOfHeap=6.338709677419355
%%%mzn-stat: 2AutonomousSearchNumAssignedPredicatesEncountered=393
%%%mzn-stat-end
maxleg = 807;
succ = array1d(1..20,[5, 4, 9, 11, 2, 15, 19, 10, 12, 18, 13, 17, 7, 8, 1, 20, 16, 6, 3, 14]);
% time elapsed: 6.11 s
----------
==========
% time elapsed: 6.12 s
%%%mzn-stat: initTime=0.042031135
%%%mzn-stat: objective=807
%%%mzn-stat: nodes=835
%%%mzn-stat: restarts=0
%%%mzn-stat: peakDepth=74
%%%mzn-stat: solveTime=0.019249085
%%%mzn-stat: variables=196
%%%mzn-stat: propagators=119
%%%mzn-stat: failures=501
%%%mzn-stat: propagations=11706
%%%mzn-stat: nogoods=501
%%%mzn-stat: numAtomicConstraintsPropagated=0
%%%mzn-stat: allDifferentNumber1TotalHallSetSize=2609
%%%mzn-stat: allDifferentNumber1NumberOfConflicts=458
%%%mzn-stat: allDifferentNumber1MaxHallSetSize=19
%%%mzn-stat: allDifferentNumber1PropagationsTotal=2039
%%%mzn-stat: allDifferentNumber1PropagationsThatFoundConflict=458
%%%mzn-stat: circuitNumber2PropagationsThatFoundConflict=19
%%%mzn-stat: circuitNumber2TotalFixedEdgesAtConflict=227
%%%mzn-stat: circuitNumber2NumberOfConflicts=19
%%%mzn-stat: circuitNumber2PropagationsThatPruned=201
%%%mzn-stat: circuitNumber2PropagationsTotal=1020
%%%mzn-stat: AverageConflictSize=5.083832335329341
%%%mzn-stat: NumUnitNogoodsLearned=2
%%%mzn-stat: AverageLearnedNogoodLength=4.818363273453094
%%%mzn-stat: AverageBacktrackAmount=0
%%%mzn-stat: AverageLbd=3.8682634730538923
%%%mzn-stat: 2AutonomousSearchNumBackupCalled=61
%%%mzn-stat: 2AutonomousSearchNumPredicatesRemoved=0
%%%mzn-stat: 2AutonomousSearchNumCalls=62
%%%mzn-stat: 2AutonomousSearchNumPredicatesAdded=914
%%%mzn-stat: 2AutonomousSearchAverageSizeOfHeap=6.338709677419355
%%%mzn-stat: 2AutonomousSearchNumAssignedPredicatesEncountered=393
%%%mzn-stat-end
